% seed = 0

mint = 27;
% maxt = 189;

nActs = 92;
dur = [0,1,1,2,3,3,1,2,1,2,2,2,1,2,2,1,2,2,2,5,4,2,1,3,2,2,3,2,3,1,2,1,1,2,2,1,1,2,2,4,3,4,3,1,2,4,3,2,2,2,3,2,2,1,4,2,2,3,2,2,2,1,1,3,2,1,3,3,1,3,1,2,1,3,2,2,1,2,1,1,2,2,2,2,3,2,4,2,2,2,3,0];

nSkills = 9;
sreq = [| 0,0,0,0,0,0,0,0,0,
	| 0,1,0,1,0,0,0,1,0,
	| 0,0,0,0,0,0,1,0,0,
	| 0,0,0,0,0,0,1,0,0,
	| 0,0,2,1,0,0,0,0,0,
	| 0,0,1,0,0,1,0,1,0,
	| 0,0,0,0,0,0,0,1,0,
	| 0,0,0,0,0,1,0,0,1,
	| 0,0,0,1,0,0,0,1,0,
	| 0,0,1,0,0,1,0,1,0,
	| 0,0,0,0,0,0,0,1,0,
	| 0,0,0,0,1,0,0,1,0,
	| 0,0,0,0,0,0,0,1,0,
	| 0,0,0,0,0,1,0,0,0,
	| 0,0,1,0,0,0,1,1,0,
	| 0,0,0,1,0,0,0,0,0,
	| 1,0,0,0,0,0,0,0,0,
	| 0,0,0,1,0,0,0,1,0,
	| 0,0,0,0,0,0,0,1,0,
	| 0,0,0,0,0,0,0,2,0,
	| 0,0,1,0,0,0,0,1,1,
	| 0,1,0,0,0,1,0,0,0,
	| 0,0,1,0,0,0,1,1,0,
	| 0,1,0,0,0,0,0,1,0,
	| 1,1,0,0,0,0,0,1,0,
	| 0,0,1,0,0,0,0,0,0,
	| 1,0,0,0,0,0,0,1,0,
	| 0,1,0,1,0,1,0,0,0,
	| 0,0,0,0,0,0,0,1,1,
	| 0,0,0,1,0,0,0,1,0,
	| 0,0,0,0,0,0,0,1,0,
	| 0,1,0,0,0,0,1,1,0,
	| 0,0,0,0,0,0,1,1,1,
	| 0,0,1,1,0,0,0,1,0,
	| 0,0,0,0,0,0,1,0,0,
	| 0,0,0,0,0,1,0,1,0,
	| 0,0,0,0,0,0,0,1,0,
	| 1,0,0,0,0,0,1,1,0,
	| 0,0,0,0,1,0,0,0,0,
	| 0,0,1,0,0,0,0,0,1,
	| 0,0,0,0,0,0,0,1,0,
	| 0,2,0,0,0,0,0,0,0,
	| 0,1,2,0,0,0,0,0,0,
	| 0,0,1,0,0,1,1,0,0,
	| 0,0,1,0,0,0,0,0,0,
	| 1,0,0,0,0,1,0,1,0,
	| 1,0,0,0,0,0,0,1,0,
	| 0,1,0,1,0,0,0,1,0,
	| 0,0,1,0,0,0,0,1,0,
	| 0,0,0,0,0,1,1,0,1,
	| 0,0,0,0,0,1,0,0,0,
	| 0,0,0,1,0,1,0,1,0,
	| 0,0,0,0,0,0,1,0,0,
	| 0,0,0,0,0,0,0,1,0,
	| 0,0,0,0,0,0,0,1,0,
	| 0,1,0,0,0,0,0,2,0,
	| 0,1,0,0,0,1,0,0,1,
	| 0,0,0,0,0,0,0,3,0,
	| 0,0,0,0,0,0,0,1,1,
	| 0,0,0,0,0,0,0,0,1,
	| 0,0,1,0,0,0,1,0,0,
	| 0,0,0,0,0,0,1,0,0,
	| 0,0,0,0,0,0,0,1,1,
	| 0,1,0,1,0,0,0,0,0,
	| 0,0,0,0,1,2,0,0,0,
	| 0,0,0,0,0,0,0,1,1,
	| 0,0,0,0,0,0,0,1,1,
	| 0,0,0,0,0,0,1,0,0,
	| 0,0,0,0,0,2,0,1,0,
	| 0,1,0,0,0,0,1,1,0,
	| 0,1,0,0,0,1,1,0,0,
	| 0,0,1,0,0,0,0,0,0,
	| 0,0,2,0,0,0,0,0,0,
	| 0,1,0,0,0,0,0,0,0,
	| 0,0,1,0,0,0,1,0,0,
	| 1,0,0,0,0,0,1,0,1,
	| 0,0,0,0,0,0,0,1,0,
	| 0,0,0,0,0,0,0,1,0,
	| 0,0,0,0,0,0,1,0,0,
	| 0,0,0,0,0,0,1,2,0,
	| 0,1,0,0,1,0,1,0,0,
	| 0,0,1,0,1,0,0,1,0,
	| 0,0,0,0,0,0,0,1,0,
	| 0,1,0,0,0,1,0,1,0,
	| 0,0,0,0,0,0,0,1,0,
	| 0,1,0,0,0,0,0,1,0,
	| 0,0,1,0,0,0,2,0,0,
	| 0,0,0,0,0,2,0,0,0,
	| 0,0,1,0,0,0,0,0,0,
	| 0,0,0,0,0,0,1,0,0,
	| 0,0,0,0,0,1,0,1,0,
	| 0,0,0,0,0,0,0,0,0, |];

% SumOfsreq = 180;

nResources = 11;
mastery = [| false,false,false,true,true,true,false,false,false,
	| false,false,false,true,true,true,true,true,true,
	| false,false,false,false,false,false,true,true,true,
	| true,true,true,false,false,false,false,false,false,
	| false,true,true,false,false,false,false,false,true,
	| false,false,false,false,false,true,false,true,true,
	| false,true,true,false,false,false,true,true,true,
	| false,false,false,false,false,false,false,false,true,
	| false,false,false,false,false,false,false,true,true,
	| false,false,false,false,false,false,true,true,true,
	| false,false,false,false,false,false,false,true,true, |];

nPrecs = 194;
pred = [1,1,1,2,2,2,3,3,3,4,4,4,5,5,5,6,6,6,7,7,7,8,8,8,9,9,9,10,10,11,11,12,12,12,13,13,13,14,14,14,15,15,15,16,16,16,17,17,17,18,18,18,19,19,19,20,20,20,21,21,22,23,23,23,24,24,24,25,25,25,26,26,27,27,27,28,28,28,29,29,29,30,31,31,32,32,32,33,33,33,34,34,34,35,36,36,36,37,37,37,38,38,38,39,39,39,40,40,40,41,41,41,42,43,43,43,44,44,44,45,45,46,46,47,47,47,48,48,48,49,49,50,50,51,51,52,52,53,53,53,54,54,54,55,56,57,57,58,59,59,59,60,61,61,62,62,63,64,64,65,65,66,66,67,68,68,69,70,71,71,71,72,72,73,74,75,76,77,77,78,79,80,81,81,82,83,84,85,86,87,88,89,90,91];
succ = [2,3,4,10,6,8,13,11,5,20,21,46,9,18,25,48,7,40,35,12,14,19,46,31,28,79,23,60,21,25,38,17,36,15,26,27,22,53,38,15,34,50,16,84,52,78,68,29,70,33,42,20,49,35,38,90,27,67,41,39,30,58,51,24,44,63,31,42,68,69,48,32,51,59,39,43,37,32,81,37,71,85,49,39,33,53,54,75,77,62,76,37,56,67,66,43,52,65,67,60,66,55,47,75,52,88,43,77,51,57,47,56,53,45,54,70,49,59,56,57,86,63,55,58,61,72,78,71,88,74,60,54,64,62,78,65,80,73,81,55,57,59,63,74,83,58,61,76,81,69,61,77,65,83,69,86,68,79,72,73,82,70,71,73,90,72,76,74,75,85,79,84,80,85,87,80,83,89,84,86,90,82,82,87,91,88,91,91,87,89,89,92,92,92];

nUnrels = 2461;
unpred = [2,2,2,2,2,2,2,2,2,2,2,2,2,2,2,2,2,2,2,2,3,3,3,3,3,3,3,3,3,3,3,3,3,3,3,3,3,3,3,3,3,4,4,4,4,4,4,4,4,4,4,4,4,4,4,4,4,4,4,4,4,4,4,4,4,4,4,4,4,4,4,4,4,4,4,4,4,4,4,4,4,4,4,4,4,4,4,4,4,5,5,5,5,5,5,5,5,5,5,5,5,5,5,5,5,5,5,5,5,5,5,5,5,5,5,5,5,5,5,6,6,6,6,6,6,6,6,6,6,6,6,6,6,6,6,6,6,6,6,6,6,6,6,6,6,7,7,7,7,7,7,7,7,7,7,7,7,7,7,7,7,7,7,7,7,7,7,7,7,7,7,7,7,7,7,8,8,8,8,8,8,8,8,8,8,8,8,8,8,8,8,8,8,8,8,8,8,8,8,8,8,8,8,8,8,8,8,8,8,8,8,8,8,8,8,8,8,8,8,8,8,9,9,9,9,9,9,9,9,9,9,9,9,9,9,9,9,9,9,9,9,9,9,9,9,9,9,9,9,9,9,9,9,10,10,10,10,10,10,10,10,10,10,10,10,10,10,10,10,10,10,10,10,10,10,10,10,10,10,10,10,10,10,10,10,10,10,10,10,10,10,10,10,10,10,10,10,10,10,10,10,10,10,10,10,10,10,10,10,10,11,11,11,11,11,11,11,11,11,11,11,11,11,11,11,11,11,11,11,11,11,11,11,11,11,11,11,11,11,11,11,11,11,11,11,11,11,11,11,11,11,11,11,11,11,11,11,11,11,12,12,12,12,12,12,12,12,12,12,12,12,12,12,12,12,12,12,12,12,12,12,12,12,12,12,12,12,12,12,12,12,13,13,13,13,13,13,13,13,13,13,13,13,13,13,13,13,13,13,13,13,13,13,13,13,13,13,13,13,13,13,13,13,13,13,13,14,14,14,14,14,14,14,14,14,14,14,14,14,14,14,14,14,14,14,14,14,14,14,14,14,14,14,14,14,14,14,15,15,15,15,15,15,15,15,15,15,15,15,15,15,15,15,15,15,15,15,15,15,15,15,15,15,15,15,15,15,15,15,15,15,15,15,15,15,15,15,16,16,16,16,16,16,16,16,16,16,16,16,16,16,16,16,16,16,16,16,16,16,16,16,16,16,16,16,16,16,16,16,16,16,16,16,16,16,16,16,16,16,16,16,16,16,16,16,16,16,16,16,16,16,16,16,16,16,16,16,16,16,16,17,17,17,17,17,17,17,17,17,17,17,17,17,17,17,17,17,17,17,17,17,17,17,17,17,17,17,17,17,17,17,17,17,17,17,17,17,17,17,17,17,17,17,17,17,17,17,17,17,17,17,18,18,18,18,18,18,18,18,18,18,18,18,18,18,18,18,18,18,18,18,18,18,18,18,18,18,18,18,18,18,18,18,18,18,18,18,18,18,18,18,19,19,19,19,19,19,19,19,19,19,19,19,19,19,19,19,19,19,19,19,19,19,19,19,19,19,19,19,19,19,19,19,19,19,19,19,19,19,19,19,19,19,20,20,20,20,20,20,20,20,20,20,20,20,20,20,20,20,20,20,20,20,20,20,20,20,20,20,20,20,20,20,20,20,20,20,20,20,20,20,20,20,20,20,20,20,20,20,21,21,21,21,21,21,21,21,21,21,21,21,21,21,21,21,21,21,21,21,21,21,21,21,21,21,21,21,21,21,21,21,21,21,21,21,21,21,21,21,21,21,21,21,21,21,21,21,21,22,22,22,22,22,22,22,22,22,22,22,22,22,22,22,22,22,22,22,22,22,22,22,22,22,22,22,22,22,22,22,22,22,22,22,22,22,22,22,22,22,22,22,22,22,22,22,22,22,22,22,22,22,22,22,22,22,22,22,22,22,22,22,22,22,22,23,23,23,23,23,23,23,23,23,23,23,23,23,23,23,23,23,23,23,23,23,23,23,23,23,23,23,23,23,23,23,23,24,24,24,24,24,24,24,24,24,24,24,24,24,24,24,24,24,24,24,24,24,24,24,24,24,24,24,24,24,24,24,24,24,24,24,24,24,25,25,25,25,25,25,25,25,25,25,25,25,25,25,25,25,25,25,25,25,25,25,25,25,25,25,25,25,25,25,25,25,25,25,25,25,25,25,25,25,25,25,25,25,25,25,26,26,26,26,26,26,26,26,26,26,26,26,26,26,26,26,26,26,26,26,26,26,26,26,26,26,26,26,26,27,27,27,27,27,27,27,27,27,27,27,27,27,27,27,27,27,27,27,27,27,27,27,27,27,27,27,27,27,27,27,27,27,27,27,27,27,27,27,27,27,27,28,28,28,28,28,28,28,28,28,28,28,28,28,28,28,28,28,28,28,28,28,28,28,28,28,29,29,29,29,29,29,29,29,29,29,29,29,29,29,29,29,29,29,29,29,29,29,29,29,29,29,29,29,29,29,29,29,29,29,29,29,29,29,29,29,29,29,29,29,30,30,30,30,30,30,30,30,30,30,30,30,30,30,30,30,30,30,30,30,30,30,30,30,30,30,30,30,30,30,30,30,30,30,30,30,30,30,30,30,30,30,30,30,30,30,30,30,30,30,30,30,30,30,30,30,30,30,30,31,31,31,31,31,31,31,31,31,31,31,31,31,31,31,31,31,31,31,31,31,31,31,31,31,31,31,31,31,31,31,31,31,31,31,31,31,31,31,31,31,31,31,32,32,32,32,32,32,32,32,32,32,32,32,32,32,32,32,32,32,32,32,32,32,32,32,32,32,32,32,33,33,33,33,33,33,33,33,33,33,33,33,33,33,33,33,33,33,33,33,33,33,33,33,33,33,33,33,33,33,33,33,33,33,33,33,33,33,33,33,33,33,33,33,34,34,34,34,34,34,34,34,34,34,34,34,34,34,34,34,34,34,34,34,34,34,34,34,34,34,34,34,34,34,34,34,34,34,34,34,34,34,34,34,34,34,35,35,35,35,35,35,35,35,35,35,35,35,35,35,35,35,35,35,35,35,35,35,35,35,35,35,35,35,35,35,35,35,35,35,35,35,35,35,35,35,35,35,35,35,35,35,35,35,35,35,35,35,36,36,36,36,36,36,36,36,36,36,36,36,36,36,36,36,36,36,36,36,36,36,37,37,37,37,37,37,37,37,37,37,37,37,37,37,37,37,37,37,37,37,37,37,37,37,37,37,37,37,37,37,37,37,37,37,37,37,37,37,37,37,37,37,37,37,38,38,38,38,38,38,38,38,38,38,38,38,38,38,38,38,38,38,38,38,38,38,38,38,38,38,38,38,38,39,39,39,39,39,39,39,39,39,39,39,39,39,39,39,39,39,39,39,39,39,39,39,39,39,39,39,39,39,39,39,39,39,39,39,39,39,39,39,39,39,39,40,40,40,40,40,40,40,40,40,40,40,40,40,40,40,40,40,40,40,41,41,41,41,41,41,41,41,41,41,41,41,41,41,41,41,41,41,41,41,41,41,41,41,41,41,41,41,41,41,41,41,41,42,42,42,42,42,42,42,42,42,42,42,42,42,42,42,42,42,42,42,42,42,42,42,42,42,42,42,42,42,42,42,42,42,42,42,42,42,42,42,43,43,43,43,43,43,43,43,43,43,43,43,43,43,43,43,43,43,43,43,43,44,44,44,44,44,44,44,44,44,44,44,44,44,44,44,44,44,44,44,44,44,44,44,44,44,44,44,45,45,45,45,45,45,45,45,45,45,45,45,45,45,45,45,45,45,45,45,45,45,45,45,45,45,45,45,45,45,45,45,46,46,46,46,46,46,46,46,46,46,46,46,46,46,46,46,46,46,46,46,46,46,46,46,46,46,46,46,46,46,46,46,46,47,47,47,47,47,47,47,47,47,47,47,47,47,47,47,47,47,47,47,47,47,47,47,47,47,47,47,47,47,47,48,48,48,48,48,48,48,48,48,48,48,48,48,48,48,48,48,48,48,48,48,48,48,48,48,48,48,48,48,48,49,49,49,49,49,49,49,49,49,49,49,49,49,49,49,49,49,49,49,49,49,49,49,49,49,49,49,49,49,49,49,49,49,49,49,50,50,50,50,50,50,50,50,50,50,50,50,50,50,50,50,51,51,51,51,51,51,51,51,51,51,51,51,51,51,51,51,51,51,51,51,51,51,51,51,51,51,51,51,51,51,51,52,52,52,52,52,52,52,52,52,52,52,52,52,52,52,52,52,52,52,52,52,52,52,52,52,52,52,52,52,52,52,52,52,53,53,53,53,53,53,53,53,53,53,53,53,53,53,53,53,53,53,53,53,53,53,53,53,53,53,53,53,53,54,54,54,54,54,54,54,54,54,54,54,54,54,54,54,55,55,55,55,55,55,55,55,55,55,55,55,55,55,55,55,55,55,55,55,55,55,55,55,55,55,55,55,55,55,55,55,55,56,56,56,56,56,56,56,56,56,56,56,56,56,56,56,56,56,56,56,56,56,56,56,56,56,56,56,56,56,56,56,56,57,57,57,57,57,57,57,57,57,57,57,57,57,57,57,57,57,57,57,57,57,57,57,58,58,58,58,58,58,58,58,58,58,58,58,58,58,58,58,58,58,58,58,58,58,58,58,58,58,58,58,58,59,59,59,59,59,59,59,59,59,59,59,59,59,59,59,59,59,59,59,60,60,60,60,60,60,60,60,60,60,60,60,60,60,60,60,60,60,60,60,60,60,60,60,60,60,60,61,61,61,61,61,61,61,61,61,61,61,61,61,61,61,61,61,61,61,61,61,61,62,62,62,62,62,62,62,62,62,62,62,62,62,62,62,62,62,62,62,62,62,62,63,63,63,63,63,63,63,63,63,63,63,63,63,63,63,63,63,63,63,63,63,64,64,64,64,64,64,64,64,64,64,64,64,64,64,64,64,64,64,64,64,65,65,65,65,65,65,65,65,65,65,65,65,65,65,65,65,65,65,65,65,65,65,66,66,66,66,66,66,66,66,66,66,66,66,66,67,67,67,67,67,67,67,67,67,67,67,67,67,67,67,67,67,67,67,67,67,68,68,68,68,68,68,68,68,68,68,68,68,68,68,68,68,68,69,69,69,69,69,69,69,69,69,69,69,69,69,69,69,69,69,69,70,70,70,70,70,70,70,70,70,70,70,70,70,70,70,70,70,70,71,71,71,71,71,71,71,71,71,71,71,71,71,72,72,72,72,72,72,72,72,72,72,72,72,72,72,72,73,73,73,73,73,73,73,73,73,73,73,73,73,73,73,73,74,74,74,74,74,74,74,74,74,74,74,74,74,74,74,75,75,75,75,75,75,75,75,75,75,75,75,75,76,76,76,76,76,76,76,76,76,76,76,76,77,77,77,77,77,77,77,77,77,77,77,78,78,78,78,78,78,78,78,78,78,79,79,79,79,79,79,79,79,79,79,79,80,80,80,80,80,80,80,80,80,81,81,81,81,81,81,82,82,82,82,82,82,82,82,83,83,83,83,83,83,84,84,84,84,84,84,85,85,85,85,85,86,86,86,87,87,87,88,88,89,89,90];
unsucc = [3,4,5,9,11,13,18,20,22,23,24,25,26,27,28,30,32,33,42,44,4,6,7,8,10,12,14,15,16,17,19,21,29,34,35,36,40,41,46,50,64,5,6,7,8,9,10,11,12,13,14,15,16,17,18,19,22,23,24,25,26,28,29,30,31,32,33,34,35,36,37,38,40,42,43,44,45,48,49,50,53,54,60,64,66,70,71,77,79,6,7,8,10,11,12,13,14,15,16,17,19,21,22,26,29,30,34,35,36,38,40,41,46,47,48,50,64,66,71,8,9,10,11,13,18,19,20,21,22,23,24,25,26,27,28,30,31,32,33,39,41,42,44,46,49,8,9,10,11,13,18,19,20,21,22,23,24,25,26,27,28,30,31,32,33,39,40,41,42,44,46,48,49,51,62,9,10,11,12,13,14,15,16,17,18,20,21,22,23,24,25,26,27,28,29,30,32,33,34,36,37,40,41,42,43,44,45,48,50,51,53,54,56,57,59,62,64,69,78,81,86,10,11,12,13,14,15,16,17,18,19,20,21,22,25,26,27,29,30,34,35,36,38,40,41,42,46,47,48,50,64,66,71,11,12,13,14,15,16,17,18,19,20,22,23,24,25,26,27,28,29,30,31,32,33,34,35,36,37,38,40,42,43,44,45,46,48,49,50,51,53,54,55,59,62,63,64,66,67,68,69,70,71,74,78,79,81,86,87,90,12,13,14,15,16,17,18,19,20,21,22,23,24,26,27,28,29,30,31,32,33,34,35,36,37,39,40,41,43,44,45,46,48,49,50,51,52,54,56,57,59,60,62,63,64,67,77,78,86,13,14,18,19,20,21,22,23,24,25,26,27,28,30,31,32,33,35,38,39,40,41,42,44,46,47,48,49,51,53,55,62,14,15,16,17,18,19,20,21,23,24,25,28,29,31,34,35,36,37,38,40,41,42,43,44,45,46,47,49,50,56,60,64,66,67,70,17,18,19,20,21,22,23,24,25,26,27,28,29,30,31,32,33,35,36,39,40,41,42,43,44,45,46,48,49,51,62,17,18,19,20,21,22,23,24,25,26,27,28,29,30,31,32,33,35,36,38,39,40,41,42,43,44,45,46,47,48,49,51,53,55,62,66,70,71,74,75,17,18,19,20,21,22,23,24,25,26,27,28,29,30,31,32,33,34,35,36,37,38,39,40,41,42,43,44,45,46,47,48,49,50,51,53,54,55,56,57,58,59,60,61,62,63,64,66,67,68,69,70,71,72,74,75,76,77,79,81,83,88,90,18,19,20,21,22,23,24,25,26,27,28,30,31,32,33,34,35,36,38,39,40,41,42,43,44,45,46,47,48,49,50,51,52,53,54,55,56,57,58,59,61,62,63,64,66,69,76,78,83,86,88,19,21,22,23,24,25,26,28,29,30,31,32,34,35,36,37,38,40,41,43,44,45,46,47,48,49,50,54,56,57,58,60,63,64,66,68,70,71,72,79,20,21,22,23,24,25,26,27,28,29,30,31,32,33,34,36,37,39,40,41,42,43,44,45,46,48,50,51,52,53,54,56,57,59,62,63,64,68,69,78,81,86,21,22,23,24,25,26,28,29,30,31,32,33,34,35,36,37,38,40,41,42,43,44,45,46,47,48,49,50,53,54,55,56,57,58,60,63,64,66,68,70,71,72,74,77,79,84,22,23,24,25,26,27,28,29,30,31,32,33,34,35,36,37,38,40,42,43,44,45,46,48,49,50,51,53,54,55,59,60,62,63,64,66,67,68,69,70,71,74,77,78,79,81,86,87,90,23,24,25,26,27,28,29,31,32,33,34,35,36,37,38,39,40,41,42,43,44,45,46,47,48,49,50,51,52,53,54,55,56,57,58,59,60,61,62,63,64,65,66,67,68,69,70,71,72,73,74,75,76,77,78,79,80,81,82,83,84,86,87,88,89,90,25,26,27,28,29,30,32,33,34,35,36,37,38,40,41,42,43,45,46,47,48,50,53,54,55,57,64,66,67,70,71,79,25,26,27,28,29,30,32,33,34,35,36,37,38,40,41,42,43,45,46,47,48,50,51,53,54,55,57,58,62,64,66,67,70,71,78,79,86,26,27,28,29,30,31,32,33,34,35,36,37,38,39,40,41,43,44,45,46,47,48,49,50,51,52,54,56,57,58,59,60,61,62,63,64,65,66,67,70,71,75,77,78,79,86,27,28,29,30,31,34,35,36,37,38,39,40,41,42,43,44,45,46,47,49,50,51,52,56,60,64,66,67,70,28,29,30,31,32,33,34,35,36,37,38,40,41,42,43,44,45,46,47,48,49,50,53,54,55,56,57,58,60,63,64,66,67,68,70,71,72,74,77,79,84,90,29,30,31,34,35,36,38,39,40,41,42,44,46,47,48,49,50,51,52,56,64,66,71,78,79,30,31,32,33,34,35,36,38,39,40,41,42,43,44,45,46,47,48,49,50,51,52,53,54,55,56,57,58,59,61,62,63,64,66,68,69,70,72,74,76,78,83,86,88,31,32,33,34,35,36,37,38,39,40,41,42,43,44,45,46,47,48,49,50,51,52,53,54,55,56,57,58,59,60,61,62,63,64,65,66,67,68,69,70,71,72,73,74,75,76,77,78,79,80,81,82,83,84,86,87,88,89,90,32,33,34,35,36,37,38,40,41,42,43,44,45,46,47,48,50,51,53,54,55,56,57,58,59,61,62,63,64,66,67,68,69,70,71,72,76,78,79,81,83,86,90,34,35,36,37,38,39,40,41,42,43,44,45,46,47,48,49,50,51,52,56,60,64,66,67,70,71,78,79,34,35,36,37,38,39,40,41,42,43,44,45,46,47,48,49,50,51,52,53,54,55,56,57,58,59,60,61,63,64,65,66,67,68,70,71,72,73,74,78,79,81,85,90,35,36,38,39,40,41,42,43,44,45,46,47,48,49,50,51,52,53,54,55,57,58,59,61,62,63,64,66,68,69,70,71,72,74,75,78,79,80,81,86,87,90,36,37,38,39,40,41,42,43,44,45,46,47,48,49,50,51,52,53,54,55,56,57,58,59,60,61,62,63,64,65,66,68,69,70,71,72,74,75,76,77,78,79,80,81,82,83,84,86,87,88,89,90,37,38,39,40,41,42,44,46,47,48,49,50,51,53,55,56,60,62,64,67,77,78,38,39,40,41,42,43,44,45,46,47,48,49,50,51,52,53,54,55,56,57,58,59,61,62,63,64,66,68,69,70,71,72,74,75,76,78,79,80,81,83,86,87,88,90,39,40,41,42,43,44,45,46,48,49,50,51,52,53,54,56,57,59,60,62,63,64,67,68,69,77,78,81,86,40,41,42,43,44,45,46,47,48,49,50,51,53,54,55,56,57,58,59,60,61,62,63,64,66,67,68,69,70,71,72,74,76,77,78,79,81,83,84,86,87,90,41,42,44,46,47,48,49,50,52,53,55,56,60,64,66,67,71,75,79,42,43,44,45,46,48,49,50,51,52,53,54,55,59,60,62,63,64,66,67,68,69,70,71,74,75,77,78,79,81,86,87,90,43,44,45,46,47,48,49,50,51,52,54,56,57,58,59,60,61,62,63,64,65,66,67,68,69,70,71,72,75,76,77,78,79,80,83,84,86,88,90,44,46,47,48,49,50,51,52,53,55,56,60,62,64,66,67,71,75,77,78,79,45,46,47,48,50,51,52,53,54,55,57,58,62,63,64,66,67,68,70,71,72,75,78,79,80,86,90,46,47,48,49,50,51,52,53,54,55,56,59,60,62,63,64,66,67,68,69,70,71,72,74,75,77,78,79,80,81,84,90,47,48,49,50,51,52,53,54,56,57,58,59,60,61,62,64,65,66,67,69,70,71,73,75,76,77,78,79,81,83,85,86,88,48,49,50,51,52,53,54,55,56,57,59,60,62,63,64,66,67,68,69,70,71,74,75,77,78,79,81,86,87,90,49,50,51,52,53,54,55,56,57,58,59,60,61,62,63,64,65,66,67,68,69,70,72,73,74,76,77,81,83,84,50,51,52,53,54,55,56,57,58,59,61,62,63,64,65,66,67,68,69,70,71,72,73,75,76,78,79,80,81,82,83,85,86,88,90,51,52,53,55,56,60,62,66,67,70,71,74,75,77,78,86,52,53,54,55,56,57,58,59,60,61,63,64,65,66,67,68,70,71,72,73,74,75,77,79,80,81,82,84,85,90,91,53,54,55,56,57,58,59,60,61,62,63,64,66,67,68,69,70,71,72,74,75,76,77,78,79,81,83,84,86,87,88,89,90,54,56,57,58,59,60,61,62,63,64,65,66,67,68,69,70,71,72,75,76,77,78,79,80,83,84,86,88,90,55,56,60,62,64,66,67,70,71,74,75,77,78,79,86,56,57,58,59,60,61,62,63,64,65,66,67,68,69,70,71,72,73,75,76,77,78,79,80,81,82,83,84,85,86,88,90,91,57,58,59,60,61,62,63,64,65,66,67,68,69,70,71,72,73,74,75,76,77,78,79,80,81,82,84,85,86,87,90,91,59,60,62,63,64,66,67,68,69,70,71,72,74,75,77,78,79,80,81,84,86,87,90,59,60,61,62,63,64,65,66,67,68,69,70,71,72,73,74,75,77,78,79,80,81,82,84,85,86,87,90,91,60,62,63,64,66,67,68,70,71,72,74,75,77,78,79,80,84,86,90,61,62,63,64,65,66,67,68,69,70,71,72,73,74,75,76,78,79,80,81,82,83,85,86,87,88,90,62,63,64,66,67,68,69,70,71,72,74,75,76,77,78,79,80,81,84,86,87,90,63,64,65,66,67,68,70,71,72,73,74,75,77,78,79,80,81,82,84,85,90,91,64,65,66,67,69,70,71,73,74,75,76,77,78,79,81,83,85,86,87,88,89,65,66,67,68,69,70,71,73,74,75,76,77,78,81,83,85,86,87,88,89,66,67,68,69,70,71,72,74,75,76,77,78,79,80,81,83,84,86,87,88,89,90,67,68,69,72,73,76,77,78,81,83,84,86,88,68,69,70,71,72,74,75,76,77,78,79,80,81,82,83,84,86,87,88,89,90,69,70,71,73,74,75,76,77,78,79,81,83,85,86,87,88,89,70,71,72,73,74,75,77,78,79,80,81,82,84,85,86,87,90,91,71,72,73,75,76,77,78,79,80,81,82,83,84,85,86,88,90,91,72,73,74,76,77,78,81,83,84,86,87,88,89,73,74,75,76,77,78,79,81,83,85,86,87,88,89,90,74,75,76,77,78,79,80,81,82,83,84,86,87,88,89,90,75,76,77,78,79,80,81,82,83,84,85,86,88,90,91,76,77,78,79,81,83,84,85,86,87,88,89,90,77,78,79,80,81,82,84,85,86,87,90,91,78,79,80,81,82,83,85,86,87,88,90,79,80,81,82,83,84,85,88,90,91,80,81,82,83,84,85,86,87,88,89,91,81,83,84,85,86,87,88,89,90,83,84,85,86,88,90,83,84,85,86,87,88,89,90,84,85,86,87,90,91,85,86,87,88,89,90,86,87,88,89,90,88,90,91,88,90,91,90,91,90,91,91];

USEFUL_RES = [{},
	{1,2,3,4,5,6,7,9,10,11},
	{2,3,7,10},
	{2,3,7,10},
	{1,2,4,5,7},
	{1,2,3,4,5,6,7,9,10,11},
	{2,3,6,7,9,10,11},
	{1,2,3,5,6,7,8,9,10,11},
	{1,2,3,6,7,9,10,11},
	{1,2,3,4,5,6,7,9,10,11},
	{2,3,6,7,9,10,11},
	{1,2,3,6,7,9,10,11},
	{2,3,6,7,9,10,11},
	{1,2,6},
	{2,3,4,5,6,7,9,10,11},
	{1,2},
	{4},
	{1,2,3,6,7,9,10,11},
	{2,3,6,7,9,10,11},
	{2,3,6,7,9,10,11},
	{2,3,4,5,6,7,8,9,10,11},
	{1,2,4,5,6,7},
	{2,3,4,5,6,7,9,10,11},
	{2,3,4,5,6,7,9,10,11},
	{2,3,4,5,6,7,9,10,11},
	{4,5,7},
	{2,3,4,6,7,9,10,11},
	{1,2,4,5,6,7},
	{2,3,5,6,7,8,9,10,11},
	{1,2,3,6,7,9,10,11},
	{2,3,6,7,9,10,11},
	{2,3,4,5,6,7,9,10,11},
	{2,3,5,6,7,8,9,10,11},
	{1,2,3,4,5,6,7,9,10,11},
	{2,3,7,10},
	{1,2,3,6,7,9,10,11},
	{2,3,6,7,9,10,11},
	{2,3,4,6,7,9,10,11},
	{1,2},
	{2,3,4,5,6,7,8,9,10,11},
	{2,3,6,7,9,10,11},
	{4,5,7},
	{4,5,7},
	{1,2,3,4,5,6,7,10},
	{4,5,7},
	{1,2,3,4,6,7,9,10,11},
	{2,3,4,6,7,9,10,11},
	{1,2,3,4,5,6,7,9,10,11},
	{2,3,4,5,6,7,9,10,11},
	{1,2,3,5,6,7,8,9,10,11},
	{1,2,6},
	{1,2,3,6,7,9,10,11},
	{2,3,7,10},
	{2,3,6,7,9,10,11},
	{2,3,6,7,9,10,11},
	{2,3,4,5,6,7,9,10,11},
	{1,2,3,4,5,6,7,8,9,10,11},
	{2,3,6,7,9,10,11},
	{2,3,5,6,7,8,9,10,11},
	{2,3,5,6,7,8,9,10,11},
	{2,3,4,5,7,10},
	{2,3,7,10},
	{2,3,5,6,7,8,9,10,11},
	{1,2,4,5,7},
	{1,2,6},
	{2,3,5,6,7,8,9,10,11},
	{2,3,5,6,7,8,9,10,11},
	{2,3,7,10},
	{1,2,3,6,7,9,10,11},
	{2,3,4,5,6,7,9,10,11},
	{1,2,3,4,5,6,7,10},
	{4,5,7},
	{4,5,7},
	{4,5,7},
	{2,3,4,5,7,10},
	{2,3,4,5,6,7,8,9,10,11},
	{2,3,6,7,9,10,11},
	{2,3,6,7,9,10,11},
	{2,3,7,10},
	{2,3,6,7,9,10,11},
	{1,2,3,4,5,7,10},
	{1,2,3,4,5,6,7,9,10,11},
	{2,3,6,7,9,10,11},
	{1,2,3,4,5,6,7,9,10,11},
	{2,3,6,7,9,10,11},
	{2,3,4,5,6,7,9,10,11},
	{2,3,4,5,7,10},
	{1,2,6},
	{4,5,7},
	{2,3,7,10},
	{1,2,3,6,7,9,10,11},
	{}];

POTENTIAL_ACT = [{2,5,6,8,9,10,12,14,16,18,22,28,30,34,36,39,44,46,48,50,51,52,57,64,65,69,71,81,82,84,88,91},
	{2,3,4,5,6,7,8,9,10,11,12,13,14,15,16,18,19,20,21,22,23,24,25,27,28,29,30,31,32,33,34,35,36,37,38,39,40,41,44,46,47,48,49,50,51,52,53,54,55,56,57,58,59,60,61,62,63,64,65,66,67,68,69,70,71,75,76,77,78,79,80,81,82,83,84,85,86,87,88,90,91},
	{2,3,4,6,7,8,9,10,11,12,13,15,18,19,20,21,23,24,25,27,29,30,31,32,33,34,35,36,37,38,40,41,44,46,47,48,49,50,52,53,54,55,56,57,58,59,60,61,62,63,66,67,68,69,70,71,75,76,77,78,79,80,81,82,83,84,85,86,87,90,91},
	{2,5,6,10,15,17,21,22,23,24,25,26,27,28,32,34,38,40,42,43,44,45,46,47,48,49,56,57,61,64,70,71,72,73,74,75,76,81,82,84,86,87,89},
	{2,5,6,8,10,15,21,22,23,24,25,26,28,29,32,33,34,40,42,43,44,45,48,49,50,56,57,59,60,61,63,64,66,67,70,71,72,73,74,75,76,81,82,84,86,87,89},
	{2,6,7,8,9,10,11,12,13,14,15,18,19,20,21,22,23,24,25,27,28,29,30,31,32,33,34,36,37,38,40,41,44,46,47,48,49,50,51,52,54,55,56,57,58,59,60,63,65,66,67,69,70,71,76,77,78,80,82,83,84,85,86,88,91},
	{2,3,4,5,6,7,8,9,10,11,12,13,15,18,19,20,21,22,23,24,25,26,27,28,29,30,31,32,33,34,35,36,37,38,40,41,42,43,44,45,46,47,48,49,50,52,53,54,55,56,57,58,59,60,61,62,63,64,66,67,68,69,70,71,72,73,74,75,76,77,78,79,80,81,82,83,84,85,86,87,89,90,91},
	{8,21,29,33,40,50,57,59,60,63,66,67,76},
	{2,6,7,8,9,10,11,12,13,15,18,19,20,21,23,24,25,27,29,30,31,32,33,34,36,37,38,40,41,46,47,48,49,50,52,54,55,56,57,58,59,60,63,66,67,69,70,76,77,78,80,82,83,84,85,86,91},
	{2,3,4,6,7,8,9,10,11,12,13,15,18,19,20,21,23,24,25,27,29,30,31,32,33,34,35,36,37,38,40,41,44,46,47,48,49,50,52,53,54,55,56,57,58,59,60,61,62,63,66,67,68,69,70,71,75,76,77,78,79,80,81,82,83,84,85,86,87,90,91},
	{2,6,7,8,9,10,11,12,13,15,18,19,20,21,23,24,25,27,29,30,31,32,33,34,36,37,38,40,41,46,47,48,49,50,52,54,55,56,57,58,59,60,63,66,67,69,70,76,77,78,80,82,83,84,85,86,91}];
